BEGIN IONS
TITLE=Example_0
SMILES=CC1=CC(=O)OC2=CC(OS(O)(=O)=O)=CC=C12
FORMULA=C10H8O6S
PRECURSOR_MZ=254.99688252391005
PRECURSORTYPE=[M-H]-
COLLISIONENERGY=17.0
INSTRUMENTTYPE=HCD
COMMENT="In silico generated spectrum by Fiora OS v0.1.0"
254.99688252391005 0.49404072761535645 Cc1cc(=O)oc2cc(OS(=O)(=O)O)ccc12//[M-H]-
239.97285884800002 0.004418256692588329 O=c1ccc2ccc(OS(=O)(=O)O)cc2o1//[M-2H]-
159.04405588409 0.0022231205366551876 Cc1cc(=O)oc2ccccc12//[M-H]-
177.05462056809 0.025992797687649727 Cc1cc(=O)oc2cc(O)ccc12//[M+H]-
176.047344116 0.003682356560602784 Cc1cc(=O)oc2cc(O)ccc12//[M]-
175.03897050409 0.3941051959991455 Cc1cc(=O)oc2cc(O)ccc12//[M-H]-
174.031694052 0.004479981027543545 Cc1cc(=O)oc2cc(O)ccc12//[M-2H]-
173.02332044009 0.0026908176951110363 Cc1cc(=O)oc2cc(O)ccc12//[M-3H]-
81.97246492400001 0.002399961929768324 O=[SH](=O)O//[M]-
80.96409131209 0.028634387999773026 O=[SH](=O)O//[M-H]-
79.95681486000001 0.022089725360274315 O=[SH](=O)O//[M-2H]-
78.94844124809 0.0016673929058015347 O=[SH](=O)O//[M-3H]-
END IONS
BEGIN IONS
TITLE=Example_1
SMILES=CC12CCC3C(CCC4=CC(OS(O)(=O)=O)=CC=C34)C1CCC2=O
FORMULA=C18H22O5S
PRECURSOR_MZ=349.11151835191
PRECURSORTYPE=[M-H]-
COLLISIONENERGY=24.0
INSTRUMENTTYPE=HCD
COMMENT="In silico generated spectrum by Fiora OS v0.1.0"
349.11151835191 0.6893534660339355 CC12CCC3c4ccc(OS(=O)(=O)O)cc4CCC3C1CCC2=O//[M-H]-
251.14304164809 0.0010026555974036455 CC12CCC3c4ccccc4CCC3C1CCC2=O//[M-3H]-
96.95900593209001 0.00546703115105629 O=S(=O)(O)O//[M-H]-
271.16925639609 0.008409821428358555 CC12CCC3c4ccc(O)cc4CCC3C1CCC2=O//[M+H]-
270.161979944 0.0013404660858213902 CC12CCC3c4ccc(O)cc4CCC3C1CCC2=O//[M]-
269.15360633209 0.23516182601451874 CC12CCC3c4ccc(O)cc4CCC3C1CCC2=O//[M-H]-
268.14632988 0.0017715865978971124 CC12CCC3c4ccc(O)cc4CCC3C1CCC2=O//[M-2H]-
267.13795626809 0.004172142129391432 CC12CCC3c4ccc(O)cc4CCC3C1CCC2=O//[M-3H]-
81.97246492400001 0.0022933862637728453 O=[SH](=O)O//[M]-
80.96409131209 0.023456167429685593 O=[SH](=O)O//[M-H]-
79.95681486000001 0.014723578467965126 O=[SH](=O)O//[M-2H]-
END IONS
BEGIN IONS
TITLE=Example_2
SMILES=ClC1=CC=C(NC(=O)NC2=CC=C(Cl)C(Cl)=C2)C=C1
FORMULA=C13H9Cl3N2O
PRECURSOR_MZ=312.97076949591
PRECURSORTYPE=[M-H]-
COLLISIONENERGY=21.0
INSTRUMENTTYPE=HCD
COMMENT="In silico generated spectrum by Fiora OS v0.1.0"
312.97076949591 0.05270859971642494 O=C(Nc1ccc(Cl)cc1)Nc1ccc(Cl)c(Cl)c1//[M-H]-
276.99299462409 0.0012185873929411173 O=C(Nc1ccccc1)Nc1ccc(Cl)c(Cl)c1//[M-3H]-
126.01050326008999 0.11667297780513763 Nc1ccc(Cl)cc1//[M-H]-
187.96644552809 0.0021030157804489136 O=CNc1ccc(Cl)c(Cl)c1//[M-H]-
185.95079546409 0.042227853089571 O=CNc1ccc(Cl)c(Cl)c1//[M-3H]-
154.00541788009 0.0011682217009365559 O=CNc1ccc(Cl)cc1//[M-H]-
152.998141428 0.0015727069694548845 O=CNc1ccc(Cl)cc1//[M-2H]-
151.98976781609 0.059813182801008224 O=CNc1ccc(Cl)cc1//[M-3H]-
160.97990452 0.0011015405179932714 Nc1ccc(Cl)c(Cl)c1//[M]-
159.97153090809 0.72437584400177 Nc1ccc(Cl)c(Cl)c1//[M-H]-
157.95588084409 0.0013773393584415317 Nc1ccc(Cl)c(Cl)c1//[M-3H]-
276.99299462409 0.006584571674466133 O=C(Nc1ccc(Cl)cc1)Nc1ccc(Cl)cc1//[M-3H]-
END IONS
BEGIN IONS
TITLE=Example_3
SMILES=Oc1c(Cl)cc(Cl)cc1C(=O)Nc1ccc(Cl)c(Cl)c1
FORMULA=C13H7Cl4NO2
PRECURSOR_MZ=347.91581273190997
PRECURSORTYPE=[M-H]-
COLLISIONENERGY=24.0
INSTRUMENTTYPE=HCD
COMMENT="In silico generated spectrum by Fiora OS v0.1.0"
347.91581273190997 0.39625346660614014 O=C(Nc1ccc(Cl)c(Cl)c1)c1cc(Cl)cc(Cl)c1O//[M-H]-
329.90415088809004 0.003739121835678816 O=C(Nc1ccc(Cl)c(Cl)c1)c1cc(Cl)cc(Cl)c1//[M-3H]-
313.95368792409005 0.007955800741910934 O=C(Nc1ccc(Cl)c(Cl)c1)c1cc(Cl)ccc1O//[M-H]-
312.946411472 0.0012892185477539897 O=C(Nc1ccc(Cl)c(Cl)c1)c1cc(Cl)ccc1O//[M-2H]-
311.93803786009005 0.06754685938358307 O=C(Nc1ccc(Cl)c(Cl)c1)c1cc(Cl)ccc1O//[M-3H]-
313.95368792409005 0.0018755675991997123 O=C(Nc1ccc(Cl)c(Cl)c1)c1cccc(Cl)c1O//[M-H]-
311.93803786009005 0.11075834184885025 O=C(Nc1ccc(Cl)c(Cl)c1)c1cccc(Cl)c1O//[M-3H]-
160.95554649609 0.18055304884910583 Oc1ccc(Cl)cc1Cl//[M-H]-
159.948270044 0.005048992112278938 Oc1ccc(Cl)cc1Cl//[M-2H]-
158.93989643209 0.0045566316694021225 Oc1ccc(Cl)cc1Cl//[M-3H]-
187.96644552809 0.002774270949885249 O=CNc1ccc(Cl)c(Cl)c1//[M-H]-
186.959169076 0.002064639935269952 O=CNc1ccc(Cl)c(Cl)c1//[M-2H]-
185.95079546409 0.01612113229930401 O=CNc1ccc(Cl)c(Cl)c1//[M-3H]-
188.95046111609 0.006467987317591906 O=Cc1cc(Cl)cc(Cl)c1O//[M-H]-
186.93481105209 0.0025412077084183693 O=Cc1cc(Cl)cc(Cl)c1O//[M-3H]-
161.98718097209 0.0061546252109110355 Nc1ccc(Cl)c(Cl)c1//[M+H]-
159.97153090809 0.12130070477724075 Nc1ccc(Cl)c(Cl)c1//[M-H]-
311.93803786009005 0.0017237046267837286 O=C(Nc1cccc(Cl)c1)c1cc(Cl)cc(Cl)c1O//[M-3H]-
311.93803786009 0.03445927053689957 O=C(Nc1ccc(Cl)cc1)c1cc(Cl)cc(Cl)c1O//[M-3H]-
END IONS
BEGIN IONS
TITLE=Example_4
SMILES=NC(=O)\C=C\C1=CC=CC=C1
FORMULA=C9H9NO
PRECURSOR_MZ=148.07569036009
PRECURSORTYPE=[M+H]+
COLLISIONENERGY=10.0
INSTRUMENTTYPE=HCD
COMMENT="In silico generated spectrum by Fiora OS v0.1.0"
148.07569036009 0.7296960949897766 NC(=O)/C=C/c1ccccc1//[M+H]+
18.03382554809 0.002630910836160183 N//[M+H]+
131.04914126409 0.12273713201284409 O=C/C=C/c1ccccc1//[M-H]+
130.06512567609 0.006028285715728998 NC/C=C/c1ccccc1//[M-3H]+
44.01309010409 0.007694608066231012 NC=O//[M-H]+
105.06987670808999 0.030062800273299217 C=Cc1ccccc1//[M+H]+
103.05422664409 0.029289299622178078 C=Cc1ccccc1//[M-H]+
60.044390232089995 0.004041736014187336 CC(N)=O//[M+H]+
93.06987670808999 0.0012019895948469639 Cc1ccccc1//[M+H]+
91.05422664409 0.0274384506046772 Cc1ccccc1//[M-H]+
89.03857658009 0.005073912907391787 Cc1ccccc1//[M-3H]+
70.02874016809 0.01528693363070488 C=CC(N)=O//[M-H]+
79.05422664409 0.01710146851837635 c1ccccc1//[M+H]+
77.03857658009 0.006522791460156441 c1ccccc1//[M-H]+
END IONS
BEGIN IONS
TITLE=Example_5
SMILES=ClC1=CC2=C(C=C1)N(C1CCN(CCCN3C(=O)NC4=C3C=CC=C4)CC1)C(=O)N2
FORMULA=C22H24ClN5O2
PRECURSOR_MZ=426.16912914009004
PRECURSORTYPE=[M+H]+
COLLISIONENERGY=29.0
INSTRUMENTTYPE=HCD
COMMENT="In silico generated spectrum by Fiora OS v0.1.0"
426.16912914009004 0.2720046639442444 O=c1[nH]c2ccccc2n1CCCN1CCC(n2c(=O)[nH]c3cc(Cl)ccc32)CC1//[M+H]+
391.20082504000004 0.006616424769163132 O=c1[nH]c2ccccc2n1CCCN1CCC(n2c(=O)[nH]c3ccccc32)CC1//[M]+
390.19245142809007 0.013004697859287262 O=c1[nH]c2ccccc2n1CCCN1CCC(n2c(=O)[nH]c3ccccc32)CC1//[M-H]+
252.08981620008998 0.01642698049545288 O=c1[nH]c2cc(Cl)ccc2n1C1CCNCC1//[M+H]+
250.07416613608999 0.004681655205786228 O=c1[nH]c2cc(Cl)ccc2n1C1CCNCC1//[M-H]+
176.094963004 0.0010908888652920723 CCCn1c(=O)[nH]c2ccccc21//[M]+
175.08658939209 0.42708301544189453 CCCn1c(=O)[nH]c2ccccc21//[M-H]+
173.07093932809 0.0036335561890155077 CCCn1c(=O)[nH]c2ccccc21//[M-3H]+
264.08981620009 0.04391304776072502 CN1CCC(n2c(=O)[nH]c3cc(Cl)ccc32)CC1//[M-H]+
278.10546626409 0.005758216138929129 CCN1CCC(n2c(=O)[nH]c3cc(Cl)ccc32)CC1//[M-H]+
149.07093932809 0.011888458393514156 Cn1c(=O)[nH]c2ccccc21//[M+H]+
147.05528926409 0.1694655567407608 Cn1c(=O)[nH]c2ccccc21//[M-H]+
146.048012812 0.0014971770578995347 Cn1c(=O)[nH]c2ccccc21//[M-2H]+
145.03963920009 0.0015730778686702251 Cn1c(=O)[nH]c2ccccc21//[M-3H]+
END IONS
BEGIN IONS
TITLE=Example_6
SMILES=C1CCC(CC1)NC1=NC2=CC=CC=C2S1
FORMULA=C13H16N2S
PRECURSOR_MZ=233.11069596408998
PRECURSORTYPE=[M+H]+
COLLISIONENERGY=16.0
INSTRUMENTTYPE=HCD
COMMENT="In silico generated spectrum by Fiora OS v0.1.0"
233.11069596408998 0.7514725923538208 c1ccc2sc(NC3CCCCC3)nc2c1//[M+H]+
84.093900384 0.0012436429969966412 C1CCCCC1//[M]+
83.08552677208999 0.0038546714931726456 C1CCCCC1//[M-H]+
151.03244564409 0.2324676513671875 Nc1nc2ccccc2s1//[M+H]+
150.025169192 0.0025252155028283596 Nc1nc2ccccc2s1//[M]+
149.01679558009 0.0022923534270375967 Nc1nc2ccccc2s1//[M-H]+
136.02154661209 0.005568159278482199 c1ccc2scnc2c1//[M+H]+
END IONS
BEGIN IONS
TITLE=Example_7
SMILES=CCCCC1=C(C)N=C(NCC)N=C1OS(=O)(=O)N(C)C
FORMULA=C13H24N4O3S
PRECURSOR_MZ=317.16418808009
PRECURSORTYPE=[M+H]+
COLLISIONENERGY=22.0
INSTRUMENTTYPE=HCD
COMMENT="In silico generated spectrum by Fiora OS v0.1.0"
317.16418808009 0.5473006367683411 CCCCc1c(C)nc(NCC)nc1OS(=O)(=O)N(C)C//[M+H]+
274.12198892009 0.003777892328798771 CCCCc1c(C)ncnc1OS(=O)(=O)N(C)C//[M+H]+
272.10633885609 0.006113689858466387 CCCCc1c(C)ncnc1OS(=O)(=O)N(C)C//[M-H]+
46.06512567608999 0.0020814533345401287 CCN//[M+H]+
45.057849223999995 0.0012378344545140862 CCN//[M]+
44.04947561208999 0.0032717797439545393 CCN//[M-H]+
289.13288795209 0.012658447027206421 CCCCc1c(C)nc(N)nc1OS(=O)(=O)N(C)C//[M+H]+
288.1256115 0.001829076325520873 CCCCc1c(C)nc(N)nc1OS(=O)(=O)N(C)C//[M]+
287.11723788809 0.001214293297380209 CCCCc1c(C)nc(N)nc1OS(=O)(=O)N(C)C//[M-H]+
192.14952399608998 0.023151027038693428 CCCCc1cnc(NCC)nc1C//[M-H]+
126.02194053609 0.005235521588474512 CN(C)S(=O)(=O)O//[M+H]+
125.014664084 0.001154830097220838 CN(C)S(=O)(=O)O//[M]+
124.00629047209 0.0014944967115297914 CN(C)S(=O)(=O)O//[M-H]+
210.16008868008998 0.09066648036241531 CCCCc1c(C)nc(NCC)nc1O//[M+H]+
209.152812228 0.08950329571962357 CCCCc1c(C)nc(NCC)nc1O//[M]+
208.14443861608999 0.06407715380191803 CCCCc1c(C)nc(NCC)nc1O//[M-H]+
108.01137585209 0.00788318831473589 CN(C)[SH](=O)=O//[M-H]+
274.12198892009 0.0012838586699217558 CCCCc1c(C)nc(NCC)nc1O[SH](=O)=O//[M+H]+
272.10633885609 0.0076653310097754 CCCCc1c(C)nc(NCC)nc1O[SH](=O)=O//[M-H]+
46.06512567608999 0.012128405272960663 CNC//[M+H]+
45.057849223999995 0.022220604121685028 CNC//[M]+
44.04947561208999 0.03015724942088127 CNC//[M-H]+
303.14853801609 0.0022780736908316612 CCCCc1c(C)nc(NCC)nc1OS(=O)(=O)NC//[M+H]+
302.141261564 0.0029769090469926596 CCCCc1c(C)nc(NCC)nc1OS(=O)(=O)NC//[M]+
301.13288795209 0.002926410408690572 CCCCc1c(C)nc(NCC)nc1OS(=O)(=O)NC//[M-H]+
END IONS
BEGIN IONS
TITLE=Example_8
SMILES=CC(C)(C)C1=CC=C(C=C1)C(=O)CCCN1CCC(CC1)OC(C1=CC=CC=C1)C1=CC=CC=C1
FORMULA=C32H39NO2
PRECURSOR_MZ=470.30535594009
PRECURSORTYPE=[M+H]+
COLLISIONENERGY=32.0
INSTRUMENTTYPE=HCD
COMMENT="In silico generated spectrum by Fiora OS v0.1.0"
470.30535594009 0.05272216349840164 CC(C)(C)c1ccc(C(=O)CCCN2CCC(OC(c3ccccc3)c3ccccc3)CC2)cc1//[M+H]+
57.06987670808999 0.009659197181463242 CC(C)C//[M-H]+
414.24275568409007 0.0016685060691088438 O=C(CCCN1CCC(OC(c2ccccc2)c2ccccc2)CC1)c1ccccc1//[M+H]+
133.10117683609 0.001280024996958673 CC(C)(C)c1ccccc1//[M-H]+
336.1958054920901 0.0037122529465705156 O=CCCCN1CCC(OC(c2ccccc2)c2ccccc2)CC1//[M-H]+
452.29479125609004 0.0024197613820433617 CC(C)(C)c1ccc(CCCCN2CCC(OC(c3ccccc3)c3ccccc3)CC2)cc1//[M-3H]+
161.09609145609 0.03652031719684601 CC(C)(C)c1ccc(C=O)cc1//[M-H]+
308.20089087209004 0.004228377249091864 CCCN1CCC(OC(c2ccccc2)c2ccccc2)CC1//[M-H]+
294.18524080809004 0.0025737157557159662 CCN1CCC(OC(c2ccccc2)c2ccccc2)CC1//[M-H]+
204.15141526 0.001305093988776207 CCCC(=O)c1ccc(C(C)(C)C)cc1//[M]+
203.14304164809 0.17634406685829163 CCCC(=O)c1ccc(C(C)(C)C)cc1//[M-H]+
268.16959074409004 0.002095663221552968 c1ccc(C(OC2CCNCC2)c2ccccc2)cc1//[M+H]+
287.224914548 0.0016239925753325224 CC(C)(C)c1ccc(C(=O)CCCN2CCCCC2)cc1//[M]+
286.21654093609004 0.04086936265230179 CC(C)(C)c1ccc(C(=O)CCCN2CCCCC2)cc1//[M-H]+
285.209264484 0.0020048802252858877 CC(C)(C)c1ccc(C(=O)CCCN2CCCCC2)cc1//[M-2H]+
284.20089087209004 0.008492108434438705 CC(C)(C)c1ccc(C(=O)CCCN2CCCCC2)cc1//[M-3H]+
185.09609145609 0.0026444264221936464 OC(c1ccccc1)c1ccccc1//[M+H]+
183.08044139209 0.0010610322933644056 OC(c1ccccc1)c1ccccc1//[M-H]+
304.22710562009 0.02651469223201275 CC(C)(C)c1ccc(C(=O)CCCN2CCC(O)CC2)cc1//[M+H]+
303.219829168 0.016615305095911026 CC(C)(C)c1ccc(C(=O)CCCN2CCC(O)CC2)cc1//[M]+
302.21145555609 0.10272148251533508 CC(C)(C)c1ccc(C(=O)CCCN2CCC(O)CC2)cc1//[M-H]+
301.204179104 0.003906683064997196 CC(C)(C)c1ccc(C(=O)CCCN2CCC(O)CC2)cc1//[M-2H]+
300.19580549209 0.003851367859169841 CC(C)(C)c1ccc(C(=O)CCCN2CCC(O)CC2)cc1//[M-3H]+
169.10117683609 0.0016144285909831524 c1ccc(Cc2ccccc2)cc1//[M+H]+
168.093900384 0.0215117447078228 c1ccc(Cc2ccccc2)cc1//[M]+
167.08552677209 0.3938639760017395 c1ccc(Cc2ccccc2)cc1//[M-H]+
166.07825032 0.025549720972776413 c1ccc(Cc2ccccc2)cc1//[M-2H]+
165.06987670809 0.039943356066942215 c1ccc(Cc2ccccc2)cc1//[M-3H]+
77.03857658009 0.0039049284532666206 c1ccccc1//[M-H]+
END IONS
BEGIN IONS
TITLE=Example_9
SMILES=FC1=CC(OC2=CC=C(C=C2Cl)C(F)(F)F)=CC=C1NC(=O)NC(=O)C1=C(F)C=CC=C1F
FORMULA=C21H11ClF6N2O3
PRECURSOR_MZ=489.04351566409
PRECURSORTYPE=[M+H]+
COLLISIONENERGY=34.0
INSTRUMENTTYPE=HCD
COMMENT="In silico generated spectrum by Fiora OS v0.1.0"
489.04351566409 0.021121079102158546 O=C(NC(=O)c1c(F)cccc1F)Nc1ccc(Oc2ccc(C(F)(F)F)cc2Cl)cc1F//[M+H]+
469.03728741209 0.0015657227486371994 O=C(NC(=O)c1c(F)cccc1F)Nc1ccc(Oc2ccc(C(F)(F)F)cc2Cl)cc1//[M-H]+
306.03033088809 0.04098856821656227 Nc1ccc(Oc2ccc(C(F)(F)F)cc2Cl)cc1F//[M+H]+
305.023054436 0.0019440499600023031 Nc1ccc(Oc2ccc(C(F)(F)F)cc2Cl)cc1F//[M]+
304.01468082409 0.007350179832428694 Nc1ccc(Oc2ccc(C(F)(F)F)cc2Cl)cc1F//[M-H]+
185.02883484 0.0037660219240933657 O=CNC(=O)c1c(F)cccc1F//[M]+
184.02046122809 0.12051494419574738 O=CNC(=O)c1c(F)cccc1F//[M-H]+
334.02524550809 0.002376265125349164 O=CNc1ccc(Oc2ccc(C(F)(F)F)cc2Cl)cc1F//[M+H]+
333.01796905599997 0.008921904489398003 O=CNc1ccc(Oc2ccc(C(F)(F)F)cc2Cl)cc1F//[M]+
332.00959544409 0.24332931637763977 O=CNc1ccc(Oc2ccc(C(F)(F)F)cc2Cl)cc1F//[M-H]+
329.99394538009 0.0011160817230120301 O=CNc1ccc(Oc2ccc(C(F)(F)F)cc2Cl)cc1F//[M-3H]+
158.04119667209 0.2187902182340622 NC(=O)c1c(F)cccc1F//[M+H]+
157.03392022 0.0017510888865217566 NC(=O)c1c(F)cccc1F//[M]+
156.02554660809 0.0017402577213943005 NC(=O)c1c(F)cccc1F//[M-H]+
347.02049447609005 0.001210607122629881 NC(=O)Nc1ccc(Oc2ccc(C(F)(F)F)cc2Cl)cc1F//[M-H]+
143.03029764009 0.0017824274254962802 O=Cc1c(F)cccc1F//[M+H]+
142.023021188 0.007585473824292421 O=Cc1c(F)cccc1F//[M]+
141.01464757609 0.25847920775413513 O=Cc1c(F)cccc1F//[M-H]+
140.007371124 0.0014708134112879634 O=Cc1c(F)cccc1F//[M-2H]+
138.99899751209 0.0015636925818398595 O=Cc1c(F)cccc1F//[M-3H]+
471.03295098009005 0.016907943412661552 O=C(NCc1c(F)cccc1F)Nc1ccc(Oc2ccc(C(F)(F)F)cc2Cl)cc1F//[M-3H]+
376.023782708 0.0012001859722658992 O=CNC(=O)Nc1ccc(Oc2ccc(C(F)(F)F)cc2Cl)cc1F//[M]+
375.01540909609 0.01193586178123951 O=CNC(=O)Nc1ccc(Oc2ccc(C(F)(F)F)cc2Cl)cc1F//[M-H]+
113.01973295609 0.0038612601347267628 Fc1cccc(F)c1//[M-H]+
END IONS
